<instance format="XCSP3" type="CSP">
  <variables>
    <array id="x" size="[23]"> 0 1 2 </array>
  </variables>
  <constraints>
    <cardinality>
      <list> x[] </list>
      <values> 0 1 2 </values>
      <occurs> 3..22 3..22 3..22 </occurs>
    </cardinality>
    <group>
      <nValues>
        <list> %0 %1 %2 </list>
        <condition> (gt,1) </condition>
      </nValues>
      <args> x[0..2] </args>
      <args> x[0] x[2..3] </args>
      <args> x[0] x[3..4] </args>
      <args> x[0] x[4..5] </args>
      <args> x[0] x[5..6] </args>
      <args> x[0] x[6..7] </args>
      <args> x[0] x[7..8] </args>
      <args> x[0] x[8..9] </args>
      <args> x[0] x[9..10] </args>
      <args> x[0] x[10..11] </args>
      <args> x[0] x[11..12] </args>
      <args> x[0] x[12..13] </args>
      <args> x[0] x[13..14] </args>
      <args> x[0] x[14..15] </args>
      <args> x[0] x[15..16] </args>
      <args> x[0] x[16..17] </args>
      <args> x[0] x[17..18] </args>
      <args> x[0] x[18..19] </args>
      <args> x[0] x[19..20] </args>
      <args> x[0] x[20..21] </args>
      <args> x[0] x[21..22] </args>
      <args> x[1..2] x[4] </args>
      <args> x[1] x[3] x[5] </args>
      <args> x[1] x[4] x[6] </args>
      <args> x[1] x[5] x[7] </args>
      <args> x[1] x[6] x[8] </args>
      <args> x[1] x[7] x[9] </args>
      <args> x[1] x[8] x[10] </args>
      <args> x[1] x[9] x[11] </args>
      <args> x[1] x[10] x[12] </args>
      <args> x[1] x[11] x[13] </args>
      <args> x[1] x[12] x[14] </args>
      <args> x[1] x[13] x[15] </args>
      <args> x[1] x[14] x[16] </args>
      <args> x[1] x[15] x[17] </args>
      <args> x[1] x[16] x[18] </args>
      <args> x[1] x[17] x[19] </args>
      <args> x[1] x[18] x[20] </args>
      <args> x[1] x[19] x[21] </args>
      <args> x[1] x[20] x[22] </args>
      <args> x[2..3] x[6] </args>
      <args> x[2] x[4] x[7] </args>
      <args> x[2] x[5] x[8] </args>
      <args> x[2] x[6] x[9] </args>
      <args> x[2] x[7] x[10] </args>
      <args> x[2] x[8] x[11] </args>
      <args> x[2] x[9] x[12] </args>
      <args> x[2] x[10] x[13] </args>
      <args> x[2] x[11] x[14] </args>
      <args> x[2] x[12] x[15] </args>
      <args> x[2] x[13] x[16] </args>
      <args> x[2] x[14] x[17] </args>
      <args> x[2] x[15] x[18] </args>
      <args> x[2] x[16] x[19] </args>
      <args> x[2] x[17] x[20] </args>
      <args> x[2] x[18] x[21] </args>
      <args> x[2] x[19] x[22] </args>
      <args> x[3..4] x[8] </args>
      <args> x[3] x[5] x[9] </args>
      <args> x[3] x[6] x[10] </args>
      <args> x[3] x[7] x[11] </args>
      <args> x[3] x[8] x[12] </args>
      <args> x[3] x[9] x[13] </args>
      <args> x[3] x[10] x[14] </args>
      <args> x[3] x[11] x[15] </args>
      <args> x[3] x[12] x[16] </args>
      <args> x[3] x[13] x[17] </args>
      <args> x[3] x[14] x[18] </args>
      <args> x[3] x[15] x[19] </args>
      <args> x[3] x[16] x[20] </args>
      <args> x[3] x[17] x[21] </args>
      <args> x[3] x[18] x[22] </args>
      <args> x[4..5] x[10] </args>
      <args> x[4] x[6] x[11] </args>
      <args> x[4] x[7] x[12] </args>
      <args> x[4] x[8] x[13] </args>
      <args> x[4] x[9] x[14] </args>
      <args> x[4] x[10] x[15] </args>
      <args> x[4] x[11] x[16] </args>
      <args> x[4] x[12] x[17] </args>
      <args> x[4] x[13] x[18] </args>
      <args> x[4] x[14] x[19] </args>
      <args> x[4] x[15] x[20] </args>
      <args> x[4] x[16] x[21] </args>
      <args> x[4] x[17] x[22] </args>
      <args> x[5..6] x[12] </args>
      <args> x[5] x[7] x[13] </args>
      <args> x[5] x[8] x[14] </args>
      <args> x[5] x[9] x[15] </args>
      <args> x[5] x[10] x[16] </args>
      <args> x[5] x[11] x[17] </args>
      <args> x[5] x[12] x[18] </args>
      <args> x[5] x[13] x[19] </args>
      <args> x[5] x[14] x[20] </args>
      <args> x[5] x[15] x[21] </args>
      <args> x[5] x[16] x[22] </args>
      <args> x[6..7] x[14] </args>
      <args> x[6] x[8] x[15] </args>
      <args> x[6] x[9] x[16] </args>
      <args> x[6] x[10] x[17] </args>
      <args> x[6] x[11] x[18] </args>
      <args> x[6] x[12] x[19] </args>
      <args> x[6] x[13] x[20] </args>
      <args> x[6] x[14] x[21] </args>
      <args> x[6] x[15] x[22] </args>
      <args> x[7..8] x[16] </args>
      <args> x[7] x[9] x[17] </args>
      <args> x[7] x[10] x[18] </args>
      <args> x[7] x[11] x[19] </args>
      <args> x[7] x[12] x[20] </args>
      <args> x[7] x[13] x[21] </args>
      <args> x[7] x[14] x[22] </args>
      <args> x[8..9] x[18] </args>
      <args> x[8] x[10] x[19] </args>
      <args> x[8] x[11] x[20] </args>
      <args> x[8] x[12] x[21] </args>
      <args> x[8] x[13] x[22] </args>
      <args> x[9..10] x[20] </args>
      <args> x[9] x[11] x[21] </args>
      <args> x[9] x[12] x[22] </args>
      <args> x[10..11] x[22] </args>
    </group>
  </constraints>
</instance>
